NAME: st70-16-1
TYPE: TSP
COMMENT: min_cost = 383.09
DIMENSION: 16
EDGE_WEIGHT_TYPE: EUC_2D
NODE_COORD_SECTION
1 57 91
2 98 7
3 68 40
4 30 9
5 81 34
6 67 88
7 10 68
8 64 8
9 64 96
10 79 70
11 74 67
12 48 82
13 9 100
14 42 67
15 6 8
16 48 67
EOF
